100 100
74 70 1
52 53 1
75 62 1
12 41 1
5 70 1
24 69 1
62 54 1
90 98 1
98 54 1
8 19 1
12 9 1
79 67 1
52 64 1
3 96 1
22 24 1
30 49 1
69 86 1
59 81 1
44 66 1
92 91 1
97 69 1
28 86 1
78 90 1
77 46 1
87 64 1
57 90 1
82 41 1
2 73 1
38 80 1
50 12 1
31 67 1
100 89 1
1 92 1
52 95 1
100 27 1
58 78 1
75 68 1
68 90 1
80 62 1
80 79 1
61 59 1
95 97 1
22 72 1
62 92 1
59 62 1
83 65 1
76 68 1
56 66 1
69 78 1
83 96 1
91 90 1
62 52 1
91 53 1
97 38 1
78 22 1
80 50 1
74 92 1
68 91 1
57 65 1
10 72 1
68 92 1
53 56 1
57 71 1
100 31 1
75 53 1
50 33 1
69 89 1
52 63 1
93 76 1
58 71 1
94 67 1
17 8 1
72 61 1
29 81 1
29 71 1
93 63 1
63 57 1
60 84 1
76 60 1
80 81 1
77 16 1
4 8 1
85 74 1
79 60 1
87 36 1
58 93 1
55 100 1
91 51 1
57 67 1
75 89 1
92 37 1
13 5 1
96 60 1
53 98 1
81 86 1
48 19 1
95 65 1
94 68 1
87 97 1
43 97 1
100 100 
100 100 
100 100 
100 100 
100 100 
100 100 
100 100 
100 100 
100 100 
100 100 
100 100 
100 100 
100 100 
100 100 
100 100 
100 100 
100 100 
100 100 
100 100 
100 100 
100 100 
100 100 
100 100 
100 100 
100 100 
100 100 
100 100 
100 100 
100 100 
100 100 
100 100 
100 100 
100 100 
100 100 
100 100 
100 100 
100 100 
100 100 
100 100 
100 100 
100 100 
100 100 
100 100 
100 100 
100 100 
100 100 
100 100 
100 100 
100 100 
100 100 
100 100 
100 100 
100 100 
100 100 
100 100 
100 100 
100 100 
100 100 
100 100 
100 100 
100 100 
100 100 
100 100 
100 100 
100 100 
100 100 
100 100 
100 100 
100 100 
100 100 
100 100 
100 100 
100 100 
100 100 
100 100 
100 100 
100 100 
100 100 
100 100 
100 100 
100 100 
100 100 
100 100 
100 100 
100 100 
100 100 
100 100 
100 100 
100 100 
100 100 
100 100 
100 100 
100 100 
100 100 
100 100 
100 100 
100 100 
100 100 
100 100 
100 100 
